20J6M/DAT/20J6MULL-15.dat
20 6
32.1369 32.1369
3.248 3.248
6.3042 6.3042
5.5099 5.5099
17.4781 17.4781
32.1681 32.1681
0.0177 0.0177
24.7582 24.7582
7.1576 7.1576
8.3796 8.3796
1.0305 1.0305
11.1828 11.1828
1.4137 1.4137
3.0379 3.0379
35.9787 35.9787
46.7253 46.7253
3.7883 3.7883
9.2226 9.2226
12.0213 12.0213
35.5791 35.5791
49.5231