20J6M/SOL/20J6MULL-15.sol
solution status: optimal solution found
objective value:                     49.5230833333333
x#1#1                                               1 	(obj:0)
x#2#4                                               1 	(obj:0)
x#3#4                                               1 	(obj:0)
x#4#5                               0.771145271844015 	(obj:0)
x#4#6                               0.228854728155985 	(obj:0)
x#5#2                               0.992955946775298 	(obj:0)
x#5#6                             0.00704405322470225 	(obj:0)
x#6#2                                               1 	(obj:0)
x#7#1                                               1 	(obj:0)
x#8#3                               0.276400007539589 	(obj:0)
x#8#4                               0.348150646385171 	(obj:0)
x#8#5                               0.375449346075239 	(obj:0)
x#9#4                                               1 	(obj:0)
x#10#1                                              1 	(obj:0)
x#11#1                                              1 	(obj:0)
x#12#4                                              1 	(obj:0)
x#13#6                                              1 	(obj:0)
x#14#3                                              1 	(obj:0)
x#15#5                                              1 	(obj:0)
x#16#6                                              1 	(obj:0)
x#17#4                                              1 	(obj:0)
x#18#4                                              1 	(obj:0)
x#19#3                                              1 	(obj:0)
x#20#1                              0.223681412214849 	(obj:0)
x#20#3                              0.776318587785151 	(obj:0)
z                                    49.5230833333333 	(obj:1)
